decision_x1=[0,2];
decision_x2=[0,2];
decision_x3=[0,2];
decision_x4=[0,2];
decision_x5=[0,2];
decision_x6=[0,2];
decision_x7=[0,2];
decision_x8=[0,2];
decision_x9=[0,2];
decision_x10=[0,2];
decision_x11=[0,2];
decision_x12=[0,2];
decision_x13=[0,2];
decision_x14=[0,2];
decision_x15=[0,2];
random_y1=[0,2];
random_y2=[0,2];
random_y3=[0,2];
constraint_x3_x2=[
0,0,3.7|
0,1,1.8|
0,2,5.1|
1,0,7.7|
1,1,9.2|
1,2,3.4|
2,0,1.6|
2,1,0.068|
2,2,6|
];
constraint_x4_x1=[
0,0,4.2|
0,1,2.8|
0,2,9.1|
1,0,7.5|
1,1,8|
1,2,7.8|
2,0,2.1|
2,1,9.1|
2,2,7.2|
];
constraint_x4_x3=[
0,0,0.65|
0,1,2.6|
0,2,8.6|
1,0,2.8|
1,1,5.2|
1,2,7.1|
2,0,1.5|
2,1,9.6|
2,2,5.1|
];
constraint_x5_x1=[
0,0,3.5|
0,1,4.4|
0,2,6.2|
1,0,8.9|
1,1,2.1|
1,2,0.078|
2,0,2.2|
2,1,4.2|
2,2,1.1|
];
constraint_x5_x2=[
0,0,9.2|
0,1,0.49|
0,2,5|
1,0,1.6|
1,1,5.2|
1,2,7.9|
2,0,3.3|
2,1,0.79|
2,2,3.1|
];
constraint_x5_x4=[
0,0,7.6|
0,1,6.6|
0,2,8.2|
1,0,0.83|
1,1,3.4|
1,2,1.1|
2,0,3.1|
2,1,4.8|
2,2,8.9|
];
constraint_x6_x1=[
0,0,3.4|
0,1,3.8|
0,2,5|
1,0,3.8|
1,1,4.1|
1,2,5.3|
2,0,8|
2,1,2.5|
2,2,6|
];
constraint_x7_x4=[
0,0,3.1|
0,1,9|
0,2,8.8|
1,0,4.3|
1,1,3.2|
1,2,3.4|
2,0,4.3|
2,1,9.8|
2,2,7|
];
constraint_x7_x5=[
0,0,9.5|
0,1,9.3|
0,2,8|
1,0,9.5|
1,1,3.8|
1,2,6.8|
2,0,7|
2,1,6.5|
2,2,4.1|
];
constraint_x7_x6=[
0,0,4.9|
0,1,6.6|
0,2,3.5|
1,0,1.9|
1,1,9|
1,2,5.3|
2,0,5.4|
2,1,4.6|
2,2,3.8|
];
constraint_x8_x1=[
0,0,2|
0,1,2.3|
0,2,4.2|
1,0,4.3|
1,1,0.66|
1,2,2.4|
2,0,7.8|
2,1,8.1|
2,2,0.89|
];
constraint_x8_x2=[
0,0,8.9|
0,1,9.3|
0,2,1.9|
1,0,9|
1,1,2.8|
1,2,8.2|
2,0,2.5|
2,1,1.2|
2,2,9.1|
];
constraint_x8_x3=[
0,0,0.69|
0,1,8.1|
0,2,4.1|
1,0,2.2|
1,1,3.4|
1,2,9.9|
2,0,6.9|
2,1,3.7|
2,2,7.4|
];
constraint_x8_x4=[
0,0,0.39|
0,1,6|
0,2,1.5|
1,0,6.3|
1,1,1.1|
1,2,0.72|
2,0,0.11|
2,1,5.6|
2,2,3.6|
];
constraint_x8_x6=[
0,0,5.6|
0,1,4.9|
0,2,5.1|
1,0,9.2|
1,1,3|
1,2,5|
2,0,4.3|
2,1,2.9|
2,2,5.9|
];
constraint_x9_x3=[
0,0,9.9|
0,1,7.4|
0,2,4.5|
1,0,6.2|
1,1,9.4|
1,2,7.7|
2,0,6.6|
2,1,9.7|
2,2,9.9|
];
constraint_x9_x4=[
0,0,5.8|
0,1,2.3|
0,2,7.6|
1,0,5.5|
1,1,9.3|
1,2,7|
2,0,6.5|
2,1,1.5|
2,2,2.9|
];
constraint_x9_x5=[
0,0,10|
0,1,5.5|
0,2,6.1|
1,0,6.5|
1,1,1.3|
1,2,2.7|
2,0,7.2|
2,1,3.6|
2,2,9.9|
];
constraint_x9_x6=[
0,0,9.8|
0,1,3.3|
0,2,9.1|
1,0,3.6|
1,1,4.9|
1,2,3.1|
2,0,6.7|
2,1,0.43|
2,2,3.6|
];
constraint_x9_x7=[
0,0,1.6|
0,1,9.6|
0,2,2.5|
1,0,2.9|
1,1,6.4|
1,2,2.8|
2,0,8.2|
2,1,9.6|
2,2,4.3|
];
constraint_x9_x8=[
0,0,5.8|
0,1,5.8|
0,2,5.2|
1,0,6.3|
1,1,3.6|
1,2,4.2|
2,0,3.5|
2,1,0.96|
2,2,4.8|
];
constraint_x10_x4=[
0,0,4.7|
0,1,0.5|
0,2,6.8|
1,0,6.9|
1,1,0.2|
1,2,5.9|
2,0,1.5|
2,1,2.2|
2,2,5.5|
];
constraint_x10_x5=[
0,0,4.4|
0,1,3.5|
0,2,8.2|
1,0,2.6|
1,1,5.8|
1,2,3.8|
2,0,2.5|
2,1,8.8|
2,2,8.3|
];
constraint_x10_x7=[
0,0,9.1|
0,1,4.6|
0,2,0.45|
1,0,3.7|
1,1,4.4|
1,2,5.9|
2,0,9.2|
2,1,5.7|
2,2,3.5|
];
constraint_x11_x3=[
0,0,1.5|
0,1,6.2|
0,2,2.5|
1,0,7.3|
1,1,1.5|
1,2,9.9|
2,0,9.6|
2,1,0.67|
2,2,7.5|
];
constraint_x11_x6=[
0,0,4.3|
0,1,1|
0,2,8.4|
1,0,0.82|
1,1,1.9|
1,2,8.8|
2,0,7.1|
2,1,2.5|
2,2,5|
];
constraint_x11_x8=[
0,0,9.1|
0,1,3|
0,2,2.4|
1,0,4.6|
1,1,1.1|
1,2,5.8|
2,0,3.7|
2,1,3|
2,2,4.6|
];
constraint_x11_x10=[
0,0,0.99|
0,1,5.6|
0,2,6.7|
1,0,2.4|
1,1,8|
1,2,1.9|
2,0,5.7|
2,1,6.6|
2,2,5.9|
];
constraint_x12_x6=[
0,0,4.3|
0,1,3.4|
0,2,9.2|
1,0,0.43|
1,1,1.7|
1,2,3.1|
2,0,2.3|
2,1,6.6|
2,2,1.4|
];
constraint_x12_x7=[
0,0,6.8|
0,1,6.2|
0,2,9.4|
1,0,4.1|
1,1,0.91|
1,2,8.5|
2,0,0.69|
2,1,2|
2,2,4.6|
];
constraint_x12_x8=[
0,0,0.56|
0,1,0.27|
0,2,7.6|
1,0,5|
1,1,5.4|
1,2,3|
2,0,9|
2,1,5.7|
2,2,7.5|
];
constraint_x12_x11=[
0,0,2|
0,1,4.6|
0,2,0.16|
1,0,6|
1,1,6.2|
1,2,7|
2,0,9.8|
2,1,5.9|
2,2,9.9|
];
constraint_x13_x2=[
0,0,0.87|
0,1,1.4|
0,2,2.2|
1,0,5|
1,1,8.8|
1,2,2|
2,0,8.9|
2,1,10|
2,2,3|
];
constraint_x13_x3=[
0,0,1.4|
0,1,7.3|
0,2,3.6|
1,0,6.1|
1,1,9.2|
1,2,4.2|
2,0,6.5|
2,1,7.5|
2,2,3.3|
];
constraint_x13_x8=[
0,0,3.6|
0,1,9.7|
0,2,9.7|
1,0,4.6|
1,1,8|
1,2,3|
2,0,4.1|
2,1,8.4|
2,2,3|
];
constraint_x13_x11=[
0,0,8.7|
0,1,5.1|
0,2,1.7|
1,0,9.1|
1,1,3.9|
1,2,1.9|
2,0,9.3|
2,1,1.8|
2,2,2.5|
];
constraint_x13_x12=[
0,0,0.37|
0,1,8|
0,2,9.6|
1,0,0.12|
1,1,0.14|
1,2,2.6|
2,0,7|
2,1,6.8|
2,2,9.5|
];
constraint_x14_x2=[
0,0,6.4|
0,1,2.1|
0,2,3.9|
1,0,4.9|
1,1,6.3|
1,2,6.5|
2,0,7.5|
2,1,7.9|
2,2,8.1|
];
constraint_x14_x7=[
0,0,9.9|
0,1,4|
0,2,9.3|
1,0,0.54|
1,1,6|
1,2,1.9|
2,0,1.3|
2,1,4.3|
2,2,6.8|
];
constraint_x14_x9=[
0,0,4.8|
0,1,3.1|
0,2,4.4|
1,0,5.5|
1,1,8.8|
1,2,3.5|
2,0,8.6|
2,1,2.1|
2,2,7.7|
];
constraint_x14_x10=[
0,0,6.4|
0,1,0.17|
0,2,1.2|
1,0,3|
1,1,8|
1,2,5.7|
2,0,7.8|
2,1,8.6|
2,2,8.9|
];
constraint_x14_x11=[
0,0,6.8|
0,1,7.4|
0,2,5.5|
1,0,4.3|
1,1,7.6|
1,2,7.5|
2,0,5.2|
2,1,0.38|
2,2,1.5|
];
constraint_x14_x12=[
0,0,8.3|
0,1,6.5|
0,2,0.37|
1,0,4.6|
1,1,4.9|
1,2,6.4|
2,0,5.7|
2,1,7.7|
2,2,7.1|
];
constraint_x14_x13=[
0,0,9.3|
0,1,9.5|
0,2,4.8|
1,0,6.6|
1,1,1.6|
1,2,4.2|
2,0,9.4|
2,1,3|
2,2,1.3|
];
constraint_x15_x2=[
0,0,2.1|
0,1,2.2|
0,2,8.5|
1,0,6.6|
1,1,6.5|
1,2,9.7|
2,0,4.9|
2,1,6.8|
2,2,9.5|
];
constraint_x15_x3=[
0,0,7.1|
0,1,8.8|
0,2,5.9|
1,0,1.2|
1,1,0.66|
1,2,3.8|
2,0,0.64|
2,1,5.1|
2,2,5.8|
];
constraint_x15_x4=[
0,0,6.9|
0,1,6.2|
0,2,5.9|
1,0,2.9|
1,1,4.3|
1,2,3.1|
2,0,0.19|
2,1,4.5|
2,2,7.2|
];
constraint_x15_x6=[
0,0,6.7|
0,1,8.1|
0,2,6.3|
1,0,9.6|
1,1,4.4|
1,2,9.9|
2,0,9.2|
2,1,0.61|
2,2,8|
];
constraint_x15_x7=[
0,0,6|
0,1,8.2|
0,2,2.2|
1,0,1.6|
1,1,4.3|
1,2,3.7|
2,0,0.68|
2,1,6.2|
2,2,7.8|
];
constraint_x15_x9=[
0,0,2.5|
0,1,2.7|
0,2,4|
1,0,0.91|
1,1,6.7|
1,2,5.6|
2,0,2|
2,1,3.9|
2,2,2.7|
];
constraint_x15_x10=[
0,0,8|
0,1,2.3|
0,2,0.76|
1,0,7.8|
1,1,0.22|
1,2,9.1|
2,0,1.2|
2,1,5.4|
2,2,7.3|
];
constraint_x15_x11=[
0,0,0.72|
0,1,4.4|
0,2,6.6|
1,0,4.6|
1,1,3.7|
1,2,7.6|
2,0,0.058|
2,1,7.1|
2,2,7.7|
];
constraint_x15_x12=[
0,0,2.7|
0,1,7.1|
0,2,2.1|
1,0,8.4|
1,1,1.7|
1,2,8.6|
2,0,4|
2,1,6.7|
2,2,4.9|
];
constraint_x1_y1=[
0,0,1.5|
0,1,9.8|
0,2,9.2|
1,0,9.1|
1,1,8.3|
1,2,10|
2,0,2.6|
2,1,1.1|
2,2,3.1|
];
constraint_x2_y2=[
0,0,2.6|
0,1,0.17|
0,2,8.9|
1,0,9.6|
1,1,5.9|
1,2,7.6|
2,0,5.9|
2,1,9.3|
2,2,7.8|
];
constraint_x3_y3=[
0,0,5.1|
0,1,3.7|
0,2,1.6|
1,0,6.5|
1,1,7.4|
1,2,2.7|
2,0,6.3|
2,1,6.2|
2,2,5.7|
];
initial_distribution_y1=[0.11,0.32,0.57];
initial_distribution_y2=[0.14,0.77,0.084];
initial_distribution_y3=[0.38,0.14,0.48];
transition_y1=[
0.64,0.18,0.18|
0.5,0.49,0.0091|
0.47,0.45,0.08|
];
transition_y2=[
0.74,0.22,0.041|
0.11,0.049,0.84|
0.73,0.17,0.098|
];
transition_y3=[
0.36,0.35,0.29|
0.53,0.32,0.15|
0.13,0.56,0.32|
];
